
Gurobi 9.5.1 (linux64) logging started Sun Jun 19 02:07:54 2022

Set parameter LogFile to value "../results/logs/log_facebook_combined_17_2_2022_06_19_02_07.log"
Gurobi Optimizer version 9.5.1 build v9.5.1rc2 (linux64)
Thread count: 8 physical cores, 8 logical processors, using up to 8 threads
Optimize a model with 455 rows, 8078 columns and 14841 nonzeros
Model fingerprint: 0x4d5ab9c0
Variable types: 0 continuous, 8078 integer (8078 binary)
Coefficient statistics:
  Matrix range     [1e+00, 2e+01]
  Objective range  [1e+00, 1e+00]
  Bounds range     [1e+00, 1e+00]
  RHS range        [1e+00, 2e+00]
Found heuristic solution: objective 2061.0000000
Presolve removed 38 rows and 7338 columns
Presolve time: 0.02s
Presolved: 417 rows, 740 columns, 7970 nonzeros
Found heuristic solution: objective 2064.0000000
Variable types: 0 continuous, 740 integer (692 binary)

Root relaxation: objective 2.249806e+03, 93 iterations, 0.00 seconds (0.00 work units)

    Nodes    |    Current Node    |     Objective Bounds      |     Work
 Expl Unexpl |  Obj  Depth IntInf | Incumbent    BestBd   Gap | It/Node Time

     0     0 2249.80643    0   70 2064.00000 2249.80643  9.00%     -    0s
H    0     0                    2072.0000000 2249.80643  8.58%     -    0s
     0     0 2201.43253    0   69 2072.00000 2201.43253  6.25%     -    0s
     0     0 2200.50041    0   69 2072.00000 2200.50041  6.20%     -    0s
     0     0 2200.42988    0   82 2072.00000 2200.42988  6.20%     -    0s
     0     0 2186.56198    0   91 2072.00000 2186.56198  5.53%     -    0s
     0     0 2184.60049    0   74 2072.00000 2184.60049  5.43%     -    0s
     0     0 2183.72329    0   97 2072.00000 2183.72329  5.39%     -    0s
     0     0 2183.27322    0   86 2072.00000 2183.27322  5.37%     -    0s
     0     0 2183.21218    0  110 2072.00000 2183.21218  5.37%     -    0s
     0     0 2183.15949    0  105 2072.00000 2183.15949  5.36%     -    0s
     0     0 2183.15919    0  105 2072.00000 2183.15919  5.36%     -    0s
     0     0 2176.04114    0  103 2072.00000 2176.04114  5.02%     -    0s
H    0     0                    2074.0000000 2176.04114  4.92%     -    0s
     0     0 2173.94497    0   85 2074.00000 2173.94497  4.82%     -    0s
     0     0 2173.35427    0   95 2074.00000 2173.35427  4.79%     -    0s
H    0     0                    2100.0000000 2173.09918  3.48%     -    0s
     0     0 2173.09918    0  122 2100.00000 2173.09918  3.48%     -    0s
     0     0 2172.98529    0  122 2100.00000 2172.98529  3.48%     -    0s
     0     0 2172.97712    0  125 2100.00000 2172.97712  3.48%     -    0s
     0     0 2169.18457    0  112 2100.00000 2169.18457  3.29%     -    0s
     0     0 2168.10769    0  126 2100.00000 2168.10769  3.24%     -    0s
     0     0 2167.66395    0  134 2100.00000 2167.66395  3.22%     -    0s
     0     0 2167.53599    0  145 2100.00000 2167.53599  3.22%     -    0s
     0     0 2167.50269    0  141 2100.00000 2167.50269  3.21%     -    0s
     0     0 2166.07090    0  126 2100.00000 2166.07090  3.15%     -    0s
     0     0 2165.60727    0  136 2100.00000 2165.60727  3.12%     -    0s
     0     0 2165.51672    0  142 2100.00000 2165.51672  3.12%     -    0s
     0     0 2165.50555    0  140 2100.00000 2165.50555  3.12%     -    0s
     0     0 2164.09077    0  141 2100.00000 2164.09077  3.05%     -    0s
     0     0 2163.80275    0  147 2100.00000 2163.80275  3.04%     -    0s
     0     0 2163.68792    0  143 2100.00000 2163.68792  3.03%     -    0s
     0     0 2163.62927    0  153 2100.00000 2163.62927  3.03%     -    0s
     0     0 2162.94364    0  154 2100.00000 2162.94364  3.00%     -    0s
     0     0 2162.81629    0  157 2100.00000 2162.81629  2.99%     -    0s
     0     0 2162.69199    0  162 2100.00000 2162.69199  2.99%     -    0s
     0     0 2162.62943    0  166 2100.00000 2162.62943  2.98%     -    0s
     0     0 2161.97532    0  154 2100.00000 2161.97532  2.95%     -    0s
     0     0 2161.97532    0  153 2100.00000 2161.97532  2.95%     -    0s
     0     2 2161.59993    0  153 2100.00000 2161.59993  2.93%     -    0s
H 1251   514                    2102.0000000 2150.91695  2.33%  31.5    0s
H 1409   553                    2112.0000000 2150.91695  1.84%  32.3    0s

Cutting planes:
  Gomory: 41
  Cover: 478
  Clique: 1
  MIR: 198
  StrongCG: 19
  GUB cover: 58
  Inf proof: 1
  Zero half: 3
  Mod-K: 1
  RLT: 79
  Relax-and-lift: 1

Explored 6784 nodes (264334 simplex iterations) in 2.96 seconds (5.81 work units)
Thread count was 8 (of 8 available processors)

Solution count 7: 2112 2102 2100 ... 2061

Optimal solution found (tolerance 0.00e+00)
Best objective 2.112000000000e+03, best bound 2.112000000000e+03, gap 0.0000%
